# Objective value = 15
y_1_NP_GP 0
y_2_NP_GP 0
y_3_NP_GP 0
y_3_NP_BZ 0
y_3_GP_BZ 0
y_4_NP_GP 1
y_4_NP_BZ 1
y_4_NP_CO 0
y_4_GP_BZ 0
y_4_GP_CO 0
y_4_BZ_CO 0
y_5_NP_GP 0
y_5_NP_BZ 0
y_5_NP_CO 0
y_5_GP_BZ 0
y_5_GP_CO 0
y_5_BZ_CO 0
y_6_NP_GP 0
y_6_NP_BZ 0
y_6_NP_CO 0
y_6_GP_BZ 1
y_6_GP_CO 0
y_6_BZ_CO 0
y_7_NP_GP 0
y_7_NP_BZ 0
y_7_NP_CO 0
y_7_GP_BZ 0
y_7_GP_CO 0
y_7_BZ_CO 0
y_8_NP_GP 0
y_8_NP_BZ 0
y_8_NP_CO 0
y_8_GP_BZ 0
y_8_GP_CO 0
y_8_BZ_CO 0
y_9_NP_GP 0
y_9_NP_BZ 0
y_9_NP_CO 0
y_9_GP_BZ 0
y_9_GP_CO 0
y_9_BZ_CO 0
y_10_NP_GP 0
y_10_NP_BZ 0
y_10_NP_CO 0
y_10_GP_BZ 1
y_10_GP_CO 0
y_10_BZ_CO 0
y_11_NP_GP 0
y_11_NP_BZ 1
y_11_NP_CO 0
y_11_GP_BZ 1
y_11_GP_CO 0
y_11_BZ_CO 0
y_12_NP_GP 1
y_12_NP_BZ 0
y_12_NP_CO 0
y_12_GP_BZ 0
y_12_GP_CO 0
y_12_BZ_CO 0
y_13_NP_GP 0
y_13_NP_BZ 0
y_13_NP_CO 0
y_13_GP_BZ 1
y_13_GP_CO 0
y_13_BZ_CO 0
y_14_NP_GP 1
y_14_NP_BZ 1
y_14_NP_CO 0
y_14_GP_BZ 0
y_14_GP_CO 0
y_14_BZ_CO 0
y_15_NP_GP 0
y_15_NP_BZ 0
y_15_NP_CO 0
y_15_NP_TM 0
y_15_GP_BZ 0
y_15_GP_CO 0
y_15_GP_TM 0
y_15_BZ_CO 0
y_15_BZ_TM 0
y_15_CO_TM 0
y_16_NP_GP 0
y_16_NP_BZ 0
y_16_NP_CO 0
y_16_GP_BZ 0
y_16_GP_CO 0
y_16_BZ_CO 0
y_17_NP_GP 0
y_17_NP_BZ 0
y_17_NP_CO 0
y_17_GP_BZ 0
y_17_GP_CO 0
y_17_BZ_CO 0
y_18_NP_GP 0
y_18_NP_BZ 0
y_18_NP_CO 0
y_18_GP_BZ 1
y_18_GP_CO 0
y_18_BZ_CO 0
y_19_NP_GP 0
y_19_NP_BZ 0
y_19_GP_BZ 1
y_20_NP_GP 0
y_20_NP_BZ 0
y_20_GP_BZ 0
y_21_NP_GP 0
y_21_NP_BZ 0
y_21_GP_BZ 0
y_22_NP_GP 0
y_22_NP_BZ 0
y_22_GP_BZ 0
y_23_NP_GP 0
y_23_NP_BZ 0
y_23_GP_BZ 0
y_24_NP_GP 0
y_24_NP_BZ 0
y_24_GP_BZ 0
y_25_NP_GP 0
y_25_NP_BZ 0
y_25_NP_AZ 0
y_25_GP_BZ 0
y_25_GP_AZ 0
y_25_BZ_AZ 0
y_26_NP_GP 0
y_26_NP_BZ 0
y_26_NP_AZ 0
y_26_GP_BZ 0
y_26_GP_AZ 0
y_26_BZ_AZ 0
y_27_NP_GP 0
y_27_NP_BZ 0
y_27_NP_AZ 0
y_27_NP_LL 0
y_27_GP_BZ 0
y_27_GP_AZ 0
y_27_GP_LL 0
y_27_BZ_AZ 0
y_27_BZ_LL 0
y_27_AZ_LL 0
y_28_NP_GP 0
y_28_NP_BZ 0
y_28_NP_AZ 0
y_28_NP_LL 0
y_28_GP_BZ 0
y_28_GP_AZ 0
y_28_GP_LL 0
y_28_BZ_AZ 0
y_28_BZ_LL 0
y_28_AZ_LL 1
y_29_NP_GP 0
y_29_NP_BZ 0
y_29_NP_AZ 0
y_29_NP_LL 0
y_29_GP_BZ 0
y_29_GP_AZ 0
y_29_GP_LL 0
y_29_BZ_AZ 0
y_29_BZ_LL 0
y_29_AZ_LL 0
y_30_NP_GP 0
y_30_NP_BZ 0
y_30_NP_AZ 0
y_30_NP_LL 0
y_30_GP_BZ 0
y_30_GP_AZ 0
y_30_GP_LL 0
y_30_BZ_AZ 0
y_30_BZ_LL 0
y_30_AZ_LL 0
y_31_NP_GP 0
y_31_NP_BZ 0
y_31_NP_AZ 0
y_31_NP_LL 0
y_31_GP_BZ 0
y_31_GP_AZ 0
y_31_GP_LL 0
y_31_BZ_AZ 0
y_31_BZ_LL 0
y_31_AZ_LL 0
y_32_NP_GP 0
y_32_NP_BZ 0
y_32_NP_AZ 0
y_32_NP_LL 0
y_32_GP_BZ 0
y_32_GP_AZ 0
y_32_GP_LL 0
y_32_BZ_AZ 0
y_32_BZ_LL 0
y_32_AZ_LL 0
y_33_NP_GP 0
y_33_NP_BZ 0
y_33_NP_AZ 0
y_33_NP_LL 0
y_33_GP_BZ 1
y_33_GP_AZ 0
y_33_GP_LL 0
y_33_BZ_AZ 0
y_33_BZ_LL 0
y_33_AZ_LL 0
y_34_NP_GP 0
y_34_NP_BZ 0
y_34_NP_AZ 0
y_34_NP_LL 0
y_34_GP_BZ 0
y_34_GP_AZ 0
y_34_GP_LL 0
y_34_BZ_AZ 0
y_34_BZ_LL 0
y_34_AZ_LL 0
y_35_NP_GP 0
y_35_NP_BZ 0
y_35_NP_AZ 0
y_35_NP_LL 0
y_35_GP_BZ 0
y_35_GP_AZ 0
y_35_GP_LL 0
y_35_BZ_AZ 0
y_35_BZ_LL 0
y_35_AZ_LL 0
y_36_NP_GP 0
y_36_NP_BZ 0
y_36_NP_AZ 0
y_36_NP_LL 0
y_36_GP_BZ 0
y_36_GP_AZ 0
y_36_GP_LL 0
y_36_BZ_AZ 0
y_36_BZ_LL 0
y_36_AZ_LL 0
y_37_NP_GP 0
y_37_NP_BZ 0
y_37_NP_AZ 0
y_37_NP_LL 0
y_37_NP_JA 0
y_37_GP_BZ 0
y_37_GP_AZ 0
y_37_GP_LL 0
y_37_GP_JA 0
y_37_BZ_AZ 0
y_37_BZ_LL 0
y_37_BZ_JA 0
y_37_AZ_LL 0
y_37_AZ_JA 0
y_37_LL_JA 0
y_38_NP_GP 0
y_38_NP_BZ 0
y_38_NP_AZ 0
y_38_NP_LL 0
y_38_NP_JA 0
y_38_GP_BZ 0
y_38_GP_AZ 0
y_38_GP_LL 0
y_38_GP_JA 0
y_38_BZ_AZ 0
y_38_BZ_LL 0
y_38_BZ_JA 0
y_38_AZ_LL 0
y_38_AZ_JA 0
y_38_LL_JA 0
y_39_GP_BZ 0
y_39_GP_AZ 0
y_39_GP_LL 0
y_39_GP_JA 0
y_39_BZ_AZ 0
y_39_BZ_LL 0
y_39_BZ_JA 0
y_39_AZ_LL 0
y_39_AZ_JA 0
y_39_LL_JA 0
y_40_GP_BZ 0
y_40_GP_LL 0
y_40_GP_JA 0
y_40_BZ_LL 1
y_40_BZ_JA 0
y_40_LL_JA 0
y_41_GP_BZ 0
y_41_GP_JA 0
y_41_BZ_JA 0
y_42_GP_BZ 0
y_42_GP_JA 0
y_42_GP_FF 0
y_42_BZ_JA 0
y_42_BZ_FF 0
y_42_JA_FF 0
y_43_GP_BZ 0
y_43_GP_JA 0
y_43_GP_FF 0
y_43_BZ_JA 0
y_43_BZ_FF 0
y_43_JA_FF 0
y_44_GP_BZ 0
y_44_GP_JA 0
y_44_GP_FF 0
y_44_BZ_JA 0
y_44_BZ_FF 0
y_44_JA_FF 0
y_45_GP_BZ 0
y_45_GP_JA 0
y_45_GP_FF 0
y_45_BZ_JA 0
y_45_BZ_FF 0
y_45_JA_FF 0
y_46_GP_BZ 0
y_46_GP_JA 0
y_46_GP_FF 0
y_46_BZ_JA 0
y_46_BZ_FF 0
y_46_JA_FF 0
y_47_GP_JA 0
y_47_GP_FF 0
y_47_JA_FF 0
y_48_GP_JA 0
y_48_GP_FF 0
y_48_GP_MI 0
y_48_JA_FF 0
y_48_JA_MI 0
y_48_FF_MI 0
y_49_GP_JA 0
y_49_GP_FF 0
y_49_GP_MI 0
y_49_JA_FF 0
y_49_JA_MI 0
y_49_FF_MI 0
y_50_GP_JA 0
y_50_GP_FF 0
y_50_JA_FF 0
y_51_GP_JA 0
y_51_GP_FF 0
y_51_JA_FF 0
y_52_GP_JA 0
x_1_NP_GP 0
x_2_NP_GP 0
x_3_NP_GP 0
x_4_NP_GP 0
x_3_NP_BZ 0
x_4_NP_BZ 0
x_3_GP_BZ 1
x_4_GP_BZ 1
x_5_NP_GP 1
x_5_NP_BZ 1
x_4_NP_CO 1
x_5_NP_CO 1
x_5_GP_BZ 1
x_4_GP_CO 1
x_5_GP_CO 1
x_4_BZ_CO 1
x_5_BZ_CO 1
x_6_NP_GP 1
x_6_NP_BZ 1
x_6_NP_CO 1
x_6_GP_BZ 1
x_6_GP_CO 1
x_6_BZ_CO 1
x_7_NP_GP 1
x_7_NP_BZ 1
x_7_NP_CO 1
x_7_GP_BZ 0
x_7_GP_CO 1
x_7_BZ_CO 1
x_8_NP_GP 1
x_8_NP_BZ 1
x_8_NP_CO 1
x_8_GP_BZ 0
x_8_GP_CO 1
x_8_BZ_CO 1
x_9_NP_GP 1
x_9_NP_BZ 1
x_9_NP_CO 1
x_9_GP_BZ 0
x_9_GP_CO 1
x_9_BZ_CO 1
x_10_NP_GP 1
x_10_NP_BZ 1
x_10_NP_CO 1
x_10_GP_BZ 0
x_10_GP_CO 1
x_10_BZ_CO 1
x_11_NP_GP 1
x_11_NP_BZ 1
x_11_NP_CO 1
x_11_GP_BZ 1
x_11_GP_CO 1
x_11_BZ_CO 1
x_12_NP_GP 1
x_12_NP_BZ 0
x_12_NP_CO 1
x_12_GP_BZ 0
x_12_GP_CO 1
x_12_BZ_CO 1
x_13_NP_GP 0
x_13_NP_BZ 0
x_13_NP_CO 1
x_13_GP_BZ 0
x_13_GP_CO 1
x_13_BZ_CO 1
x_14_NP_GP 0
x_14_NP_BZ 0
x_14_NP_CO 1
x_14_GP_BZ 1
x_14_GP_CO 1
x_14_BZ_CO 1
x_15_NP_GP 1
x_15_NP_BZ 1
x_15_NP_CO 1
x_15_GP_BZ 1
x_15_GP_CO 1
x_15_BZ_CO 1
x_16_NP_GP 1
x_16_NP_BZ 1
x_16_NP_CO 1
x_15_NP_TM 1
x_16_NP_TM 1
x_16_GP_BZ 1
x_16_GP_CO 1
x_15_GP_TM 1
x_16_GP_TM 1
x_16_BZ_CO 1
x_15_BZ_TM 1
x_16_BZ_TM 1
x_15_CO_TM 0
x_16_CO_TM 0
x_17_NP_GP 1
x_17_NP_BZ 1
x_17_NP_CO 1
x_17_GP_BZ 1
x_17_GP_CO 1
x_17_BZ_CO 1
x_18_NP_GP 1
x_18_NP_BZ 1
x_18_NP_CO 1
x_18_GP_BZ 1
x_18_GP_CO 1
x_18_BZ_CO 1
x_19_NP_GP 1
x_19_NP_BZ 1
x_19_NP_CO 1
x_19_GP_BZ 0
x_19_GP_CO 1
x_19_BZ_CO 1
x_20_NP_GP 1
x_20_NP_BZ 1
x_20_GP_BZ 1
x_21_NP_GP 1
x_21_NP_BZ 1
x_21_GP_BZ 1
x_22_NP_GP 1
x_22_NP_BZ 1
x_22_GP_BZ 1
x_23_NP_GP 1
x_23_NP_BZ 1
x_23_GP_BZ 1
x_24_NP_GP 1
x_24_NP_BZ 1
x_24_GP_BZ 1
x_25_NP_GP 1
x_25_NP_BZ 1
x_25_GP_BZ 1
x_26_NP_GP 1
x_26_NP_BZ 1
x_25_NP_AZ 1
x_26_NP_AZ 1
x_26_GP_BZ 1
x_25_GP_AZ 0
x_26_GP_AZ 0
x_25_BZ_AZ 0
x_26_BZ_AZ 0
x_27_NP_GP 1
x_27_NP_BZ 1
x_27_NP_AZ 1
x_27_GP_BZ 1
x_27_GP_AZ 0
x_27_BZ_AZ 0
x_28_NP_GP 1
x_28_NP_BZ 1
x_28_NP_AZ 1
x_27_NP_LL 1
x_28_NP_LL 1
x_28_GP_BZ 1
x_28_GP_AZ 0
x_27_GP_LL 0
x_28_GP_LL 0
x_28_BZ_AZ 0
x_27_BZ_LL 0
x_28_BZ_LL 0
x_27_AZ_LL 1
x_28_AZ_LL 1
x_29_NP_GP 1
x_29_NP_BZ 1
x_29_NP_AZ 1
x_29_NP_LL 1
x_29_GP_BZ 1
x_29_GP_AZ 0
x_29_GP_LL 0
x_29_BZ_AZ 0
x_29_BZ_LL 0
x_29_AZ_LL 0
x_30_NP_GP 1
x_30_NP_BZ 1
x_30_NP_AZ 1
x_30_NP_LL 1
x_30_GP_BZ 1
x_30_GP_AZ 0
x_30_GP_LL 0
x_30_BZ_AZ 0
x_30_BZ_LL 0
x_30_AZ_LL 0
x_31_NP_GP 1
x_31_NP_BZ 1
x_31_NP_AZ 1
x_31_NP_LL 1
x_31_GP_BZ 1
x_31_GP_AZ 0
x_31_GP_LL 0
x_31_BZ_AZ 0
x_31_BZ_LL 0
x_31_AZ_LL 0
x_32_NP_GP 1
x_32_NP_BZ 1
x_32_NP_AZ 1
x_32_NP_LL 1
x_32_GP_BZ 1
x_32_GP_AZ 0
x_32_GP_LL 0
x_32_BZ_AZ 0
x_32_BZ_LL 0
x_32_AZ_LL 0
x_33_NP_GP 1
x_33_NP_BZ 1
x_33_NP_AZ 1
x_33_NP_LL 1
x_33_GP_BZ 1
x_33_GP_AZ 0
x_33_GP_LL 0
x_33_BZ_AZ 0
x_33_BZ_LL 0
x_33_AZ_LL 0
x_34_NP_GP 1
x_34_NP_BZ 1
x_34_NP_AZ 1
x_34_NP_LL 1
x_34_GP_BZ 0
x_34_GP_AZ 0
x_34_GP_LL 0
x_34_BZ_AZ 0
x_34_BZ_LL 0
x_34_AZ_LL 0
x_35_NP_GP 1
x_35_NP_BZ 1
x_35_NP_AZ 1
x_35_NP_LL 1
x_35_GP_BZ 0
x_35_GP_AZ 0
x_35_GP_LL 0
x_35_BZ_AZ 0
x_35_BZ_LL 0
x_35_AZ_LL 0
x_36_NP_GP 1
x_36_NP_BZ 1
x_36_NP_AZ 1
x_36_NP_LL 1
x_36_GP_BZ 0
x_36_GP_AZ 0
x_36_GP_LL 0
x_36_BZ_AZ 0
x_36_BZ_LL 0
x_36_AZ_LL 0
x_37_NP_GP 1
x_37_NP_BZ 1
x_37_NP_AZ 1
x_37_NP_LL 1
x_37_GP_BZ 0
x_37_GP_AZ 0
x_37_GP_LL 0
x_37_BZ_AZ 0
x_37_BZ_LL 0
x_37_AZ_LL 0
x_38_NP_GP 1
x_38_NP_BZ 1
x_38_NP_AZ 1
x_38_NP_LL 1
x_37_NP_JA 1
x_38_NP_JA 1
x_38_GP_BZ 0
x_38_GP_AZ 0
x_38_GP_LL 0
x_37_GP_JA 1
x_38_GP_JA 1
x_38_BZ_AZ 0
x_38_BZ_LL 0
x_37_BZ_JA 1
x_38_BZ_JA 1
x_38_AZ_LL 0
x_37_AZ_JA 1
x_38_AZ_JA 1
x_37_LL_JA 1
x_38_LL_JA 1
x_39_NP_GP 1
x_39_NP_BZ 1
x_39_NP_AZ 1
x_39_NP_LL 1
x_39_NP_JA 1
x_39_GP_BZ 0
x_39_GP_AZ 0
x_39_GP_LL 0
x_39_GP_JA 1
x_39_BZ_AZ 0
x_39_BZ_LL 0
x_39_BZ_JA 1
x_39_AZ_LL 0
x_39_AZ_JA 1
x_39_LL_JA 1
x_40_GP_BZ 0
x_40_GP_AZ 0
x_40_GP_LL 0
x_40_GP_JA 1
x_40_BZ_AZ 0
x_40_BZ_LL 0
x_40_BZ_JA 1
x_40_AZ_LL 0
x_40_AZ_JA 1
x_40_LL_JA 1
x_41_GP_BZ 0
x_41_GP_LL 0
x_41_GP_JA 1
x_41_BZ_LL 1
x_41_BZ_JA 1
x_41_LL_JA 1
x_42_GP_BZ 0
x_42_GP_JA 1
x_42_BZ_JA 1
x_43_GP_BZ 0
x_43_GP_JA 1
x_42_GP_FF 1
x_43_GP_FF 1
x_43_BZ_JA 1
x_42_BZ_FF 1
x_43_BZ_FF 1
x_42_JA_FF 1
x_43_JA_FF 1
x_44_GP_BZ 0
x_44_GP_JA 1
x_44_GP_FF 1
x_44_BZ_JA 1
x_44_BZ_FF 1
x_44_JA_FF 1
x_45_GP_BZ 0
x_45_GP_JA 1
x_45_GP_FF 1
x_45_BZ_JA 1
x_45_BZ_FF 1
x_45_JA_FF 1
x_46_GP_BZ 0
x_46_GP_JA 1
x_46_GP_FF 1
x_46_BZ_JA 1
x_46_BZ_FF 1
x_46_JA_FF 1
x_47_GP_BZ 0
x_47_GP_JA 1
x_47_GP_FF 1
x_47_BZ_JA 1
x_47_BZ_FF 1
x_47_JA_FF 1
x_48_GP_JA 1
x_48_GP_FF 1
x_48_JA_FF 1
x_49_GP_JA 1
x_49_GP_FF 1
x_48_GP_MI 1
x_49_GP_MI 1
x_49_JA_FF 1
x_48_JA_MI 0
x_49_JA_MI 0
x_48_FF_MI 0
x_49_FF_MI 0
x_50_GP_JA 1
x_50_GP_FF 1
x_50_GP_MI 1
x_50_JA_FF 1
x_50_JA_MI 0
x_50_FF_MI 0
x_51_GP_JA 1
x_51_GP_FF 1
x_51_JA_FF 1
x_52_GP_JA 1
x_52_GP_FF 1
x_52_JA_FF 1
x_53_GP_JA 1
x_0_NP_TH 1
x_0_TH_NP 0
x_1_GP_NP 1
x_2_GP_NP 1
x_2_NP_JV 0
x_2_JV_NP 1
x_2_GP_JV 1
x_2_JV_GP 0
x_3_GP_NP 1
x_3_BZ_NP 1
x_3_BZ_GP 0
x_4_GP_NP 1
x_4_BZ_NP 1
x_4_CO_NP 0
x_4_BZ_GP 0
x_4_CO_GP 0
x_4_CO_BZ 0
x_5_GP_NP 0
x_5_BZ_NP 0
x_5_CO_NP 0
x_5_BZ_GP 0
x_5_CO_GP 0
x_5_CO_BZ 0
x_6_GP_NP 0
x_6_BZ_NP 0
x_6_CO_NP 0
x_6_BZ_GP 0
x_6_CO_GP 0
x_6_CO_BZ 0
x_7_GP_NP 0
x_7_BZ_NP 0
x_7_CO_NP 0
x_7_BZ_GP 1
x_7_CO_GP 0
x_7_CO_BZ 0
x_8_GP_NP 0
x_8_BZ_NP 0
x_8_CO_NP 0
x_8_BZ_GP 1
x_8_CO_GP 0
x_8_CO_BZ 0
x_9_GP_NP 0
x_9_BZ_NP 0
x_9_CO_NP 0
x_9_BZ_GP 1
x_9_CO_GP 0
x_9_CO_BZ 0
x_10_GP_NP 0
x_10_BZ_NP 0
x_10_CO_NP 0
x_10_BZ_GP 1
x_10_CO_GP 0
x_10_CO_BZ 0
x_11_GP_NP 0
x_11_BZ_NP 0
x_11_CO_NP 0
x_11_BZ_GP 0
x_11_CO_GP 0
x_11_CO_BZ 0
x_12_GP_NP 0
x_12_BZ_NP 1
x_12_CO_NP 0
x_12_BZ_GP 1
x_12_CO_GP 0
x_12_CO_BZ 0
x_13_GP_NP 1
x_13_BZ_NP 1
x_13_CO_NP 0
x_13_BZ_GP 1
x_13_CO_GP 0
x_13_CO_BZ 0
x_14_GP_NP 1
x_14_BZ_NP 1
x_14_CO_NP 0
x_14_BZ_GP 0
x_14_CO_GP 0
x_14_CO_BZ 0
x_15_GP_NP 0
x_15_BZ_NP 0
x_15_CO_NP 0
x_15_TM_NP 0
x_15_NP_EP 1
x_15_EP_NP 0
x_15_BZ_GP 0
x_15_CO_GP 0
x_15_TM_GP 0
x_15_GP_EP 1
x_15_EP_GP 0
x_15_CO_BZ 0
x_15_TM_BZ 0
x_15_BZ_EP 1
x_15_EP_BZ 0
x_15_TM_CO 1
x_15_CO_EP 0
x_15_EP_CO 1
x_15_TM_EP 0
x_15_EP_TM 1
x_16_GP_NP 0
x_16_BZ_NP 0
x_16_CO_NP 0
x_16_TM_NP 0
x_16_BZ_GP 0
x_16_CO_GP 0
x_16_TM_GP 0
x_16_CO_BZ 0
x_16_TM_BZ 0
x_16_TM_CO 1
x_17_GP_NP 0
x_17_BZ_NP 0
x_17_CO_NP 0
x_17_BZ_GP 0
x_17_CO_GP 0
x_17_CO_BZ 0
x_18_GP_NP 0
x_18_BZ_NP 0
x_18_CO_NP 0
x_18_BZ_GP 0
x_18_CO_GP 0
x_18_CO_BZ 0
x_19_GP_NP 0
x_19_BZ_NP 0
x_19_CO_NP 0
x_19_BZ_GP 1
x_19_CO_GP 0
x_19_CO_BZ 0
x_20_GP_NP 0
x_20_BZ_NP 0
x_20_BZ_GP 0
x_21_GP_NP 0
x_21_BZ_NP 0
x_21_BZ_GP 0
x_22_GP_NP 0
x_22_BZ_NP 0
x_22_BZ_GP 0
x_23_GP_NP 0
x_23_BZ_NP 0
x_23_BZ_GP 0
x_24_GP_NP 0
x_24_BZ_NP 0
x_24_BZ_GP 0
x_25_GP_NP 0
x_25_BZ_NP 0
x_25_AZ_NP 0
x_25_BZ_GP 0
x_25_AZ_GP 1
x_25_AZ_BZ 1
x_26_GP_NP 0
x_26_BZ_NP 0
x_26_AZ_NP 0
x_26_BZ_GP 0
x_26_AZ_GP 1
x_26_AZ_BZ 1
x_27_GP_NP 0
x_27_BZ_NP 0
x_27_AZ_NP 0
x_27_LL_NP 0
x_27_BZ_GP 0
x_27_AZ_GP 1
x_27_LL_GP 1
x_27_AZ_BZ 1
x_27_LL_BZ 1
x_27_LL_AZ 0
x_28_GP_NP 0
x_28_BZ_NP 0
x_28_AZ_NP 0
x_28_LL_NP 0
x_28_BZ_GP 0
x_28_AZ_GP 1
x_28_LL_GP 1
x_28_AZ_BZ 1
x_28_LL_BZ 1
x_28_LL_AZ 0
x_29_GP_NP 0
x_29_BZ_NP 0
x_29_AZ_NP 0
x_29_LL_NP 0
x_29_BZ_GP 0
x_29_AZ_GP 1
x_29_LL_GP 1
x_29_AZ_BZ 1
x_29_LL_BZ 1
x_29_LL_AZ 1
x_30_GP_NP 0
x_30_BZ_NP 0
x_30_AZ_NP 0
x_30_LL_NP 0
x_30_BZ_GP 0
x_30_AZ_GP 1
x_30_LL_GP 1
x_30_AZ_BZ 1
x_30_LL_BZ 1
x_30_LL_AZ 1
x_31_GP_NP 0
x_31_BZ_NP 0
x_31_AZ_NP 0
x_31_LL_NP 0
x_31_BZ_GP 0
x_31_AZ_GP 1
x_31_LL_GP 1
x_31_AZ_BZ 1
x_31_LL_BZ 1
x_31_LL_AZ 1
x_32_GP_NP 0
x_32_BZ_NP 0
x_32_AZ_NP 0
x_32_LL_NP 0
x_32_BZ_GP 0
x_32_AZ_GP 1
x_32_LL_GP 1
x_32_AZ_BZ 1
x_32_LL_BZ 1
x_32_LL_AZ 1
x_33_GP_NP 0
x_33_BZ_NP 0
x_33_AZ_NP 0
x_33_LL_NP 0
x_33_BZ_GP 0
x_33_AZ_GP 1
x_33_LL_GP 1
x_33_AZ_BZ 1
x_33_LL_BZ 1
x_33_LL_AZ 1
x_34_GP_NP 0
x_34_BZ_NP 0
x_34_AZ_NP 0
x_34_LL_NP 0
x_34_BZ_GP 1
x_34_AZ_GP 1
x_34_LL_GP 1
x_34_AZ_BZ 1
x_34_LL_BZ 1
x_34_LL_AZ 1
x_35_GP_NP 0
x_35_BZ_NP 0
x_35_AZ_NP 0
x_35_LL_NP 0
x_35_BZ_GP 1
x_35_AZ_GP 1
x_35_LL_GP 1
x_35_AZ_BZ 1
x_35_LL_BZ 1
x_35_LL_AZ 1
x_36_GP_NP 0
x_36_BZ_NP 0
x_36_AZ_NP 0
x_36_LL_NP 0
x_36_BZ_GP 1
x_36_AZ_GP 1
x_36_LL_GP 1
x_36_AZ_BZ 1
x_36_LL_BZ 1
x_36_LL_AZ 1
x_37_GP_NP 0
x_37_BZ_NP 0
x_37_AZ_NP 0
x_37_LL_NP 0
x_37_JA_NP 0
x_37_BZ_GP 1
x_37_AZ_GP 1
x_37_LL_GP 1
x_37_JA_GP 0
x_37_AZ_BZ 1
x_37_LL_BZ 1
x_37_JA_BZ 0
x_37_LL_AZ 1
x_37_JA_AZ 0
x_37_JA_LL 0
x_38_GP_NP 0
x_38_BZ_NP 0
x_38_AZ_NP 0
x_38_LL_NP 0
x_38_JA_NP 0
x_38_BZ_GP 1
x_38_AZ_GP 1
x_38_LL_GP 1
x_38_JA_GP 0
x_38_AZ_BZ 1
x_38_LL_BZ 1
x_38_JA_BZ 0
x_38_LL_AZ 1
x_38_JA_AZ 0
x_38_JA_LL 0
x_39_GP_NP 0
x_39_BZ_NP 0
x_39_AZ_NP 0
x_39_LL_NP 0
x_39_JA_NP 0
x_39_BZ_GP 1
x_39_AZ_GP 1
x_39_LL_GP 1
x_39_JA_GP 0
x_39_AZ_BZ 1
x_39_LL_BZ 1
x_39_JA_BZ 0
x_39_LL_AZ 1
x_39_JA_AZ 0
x_39_JA_LL 0
x_40_BZ_GP 1
x_40_AZ_GP 1
x_40_LL_GP 1
x_40_JA_GP 0
x_40_AZ_BZ 1
x_40_LL_BZ 1
x_40_JA_BZ 0
x_40_LL_AZ 1
x_40_JA_AZ 0
x_40_JA_LL 0
x_41_BZ_GP 1
x_41_LL_GP 1
x_41_JA_GP 0
x_41_LL_BZ 0
x_41_JA_BZ 0
x_41_JA_LL 0
x_42_BZ_GP 1
x_42_JA_GP 0
x_42_FF_GP 0
x_42_JA_BZ 0
x_42_FF_BZ 0
x_42_FF_JA 0
x_43_BZ_GP 1
x_43_JA_GP 0
x_43_FF_GP 0
x_43_JA_BZ 0
x_43_FF_BZ 0
x_43_FF_JA 0
x_44_BZ_GP 1
x_44_JA_GP 0
x_44_FF_GP 0
x_44_JA_BZ 0
x_44_FF_BZ 0
x_44_FF_JA 0
x_45_BZ_GP 1
x_45_JA_GP 0
x_45_FF_GP 0
x_45_JA_BZ 0
x_45_FF_BZ 0
x_45_FF_JA 0
x_46_BZ_GP 1
x_46_JA_GP 0
x_46_FF_GP 0
x_46_JA_BZ 0
x_46_FF_BZ 0
x_46_FF_JA 0
x_47_BZ_GP 1
x_47_JA_GP 0
x_47_FF_GP 0
x_47_JA_BZ 0
x_47_FF_BZ 0
x_47_FF_JA 0
x_48_JA_GP 0
x_48_FF_GP 0
x_48_MI_GP 0
x_48_FF_JA 0
x_48_MI_JA 1
x_48_MI_FF 1
x_49_JA_GP 0
x_49_FF_GP 0
x_49_MI_GP 0
x_49_FF_JA 0
x_49_MI_JA 1
x_49_MI_FF 1
x_50_JA_GP 0
x_50_FF_GP 0
x_50_MI_GP 0
x_50_FF_JA 0
x_50_MI_JA 1
x_50_MI_FF 1
x_51_JA_GP 0
x_51_FF_GP 0
x_51_FF_JA 0
x_52_JA_GP 0
x_52_FF_GP 0
x_52_FF_JA 0
x_53_JA_GP 0
